12° run output:
{
    "Function": "kroB1000.tsp",
    "Problem dimension": [
        540,
        117,
        367,
        551,
        489,
        355,
        378,
        81,
        151,
        825,
        185,
        474,
        323,
        345,
        213,
        871,
        404,
        315,
        15,
        328,
        373,
        306,
        212,
        764,
        243,
        101,
        558,
        397,
        583,
        55,
        618,
        448,
        238,
        555,
        560,
        1,
        398,
        292,
        620,
        240,
        124,
        765,
        146,
        237,
        57,
        246,
        869,
        332,
        431,
        6,
        500,
        455,
        563,
        401,
        972,
        199,
        862,
        222,
        218,
        574,
        985,
        714,
        56,
        400,
        947,
        617,
        767,
        910,
        982,
        746,
        395,
        741,
        527,
        890,
        597,
        283,
        28,
        312,
        809,
        589,
        792,
        96,
        417,
        840,
        406,
        519,
        334,
        854,
        502,
        518,
        885,
        491,
        296,
        42,
        822,
        812,
        126,
        59,
        699,
        508,
        850,
        349,
        635,
        501,
        944,
        712,
        729,
        694,
        689,
        496,
        445,
        784,
        273,
        538,
        772,
        39,
        509,
        102,
        708,
        219,
        879,
        3,
        665,
        932,
        443,
        924,
        661,
        93,
        959,
        133,
        703,
        811,
        438,
        536,
        236,
        321,
        291,
        245,
        326,
        11,
        142,
        139,
        248,
        356,
        272,
        171,
        77,
        654,
        906,
        578,
        849,
        427,
        106,
        420,
        210,
        76,
        791,
        893,
        121,
        244,
        205,
        659,
        668,
        122,
        276,
        615,
        673,
        664,
        887,
        582,
        330,
        917,
        389,
        913,
        428,
        758,
        266,
        684,
        593,
        380,
        976,
        529,
        381,
        719,
        418,
        678,
        253,
        223,
        481,
        284,
        105,
        522,
        554,
        354,
        611,
        12,
        116,
        340,
        814,
        421,
        796,
        297,
        751,
        781,
        996,
        523,
        247,
        87,
        114,
        181,
        316,
        21,
        274,
        628,
        214,
        827,
        526,
        965,
        802,
        322,
        179,
        478,
        903,
        371,
        675,
        127,
        929,
        324,
        158,
        95,
        456,
        387,
        413,
        991,
        621,
        450,
        194,
        736,
        143,
        17,
        41,
        503,
        475,
        305,
        613,
        138,
        923,
        366,
        419,
        943,
        372,
        690,
        362,
        319,
        299,
        732,
        468,
        616,
        221,
        925,
        410,
        541,
        433,
        716,
        639,
        907,
        799,
        763,
        824,
        155,
        437,
        4,
        656,
        894,
        998,
        54,
        170,
        987,
        123,
        228,
        203,
        899,
        507,
        289,
        399,
        217,
        911,
        701,
        425,
        877,
        254,
        901,
        446,
        953,
        753,
        184,
        279,
        94,
        989,
        747,
        559,
        806,
        197,
        241,
        556,
        309,
        48,
        484,
        392,
        572,
        548,
        581,
        990,
        534,
        374,
        810,
        304,
        5,
        201,
        962,
        104,
        80,
        132,
        497,
        461,
        667,
        175,
        453,
        648,
        557,
        744,
        956,
        755,
        128,
        434,
        414,
        941,
        627,
        24,
        662,
        390,
        350,
        576,
        411,
        748,
        336,
        300,
        650,
        632,
        815,
        955,
        524,
        220,
        706,
        652,
        514,
        847,
        844,
        125,
        40,
        301,
        866,
        740,
        363,
        37,
        896,
        53,
        120,
        281,
        700,
        994,
        999,
        412,
        227,
        937,
        86,
        234,
        36,
        968,
        207,
        348,
        638,
        302,
        20,
        756,
        797,
        193,
        505,
        189,
        935,
        591,
        396,
        66,
        818,
        653,
        908,
        550,
        344,
        30,
        938,
        702,
        915,
        773,
        800,
        113,
        118,
        742,
        779,
        510,
        886,
        339,
        828,
        658,
        382,
        663,
        836,
        112,
        856,
        930,
        449,
        573,
        63,
        16,
        72,
        831,
        961,
        430,
        863,
        50,
        115,
        147,
        426,
        255,
        169,
        271,
        65,
        173,
        780,
        174,
        10,
        599,
        229,
        110,
        858,
        516,
        463,
        317,
        67,
        485,
        838,
        70,
        282,
        997,
        46,
        415,
        735,
        852,
        713,
        364,
        0,
        600,
        688,
        586,
        986,
        562,
        368,
        592,
        376,
        423,
        145,
        775,
        375,
        926,
        357,
        119,
        766,
        672,
        606,
        298,
        949,
        91,
        153,
        308,
        698,
        739,
        530,
        760,
        327,
        521,
        918,
        888,
        537,
        85,
        789,
        771,
        902,
        860,
        235,
        294,
        954,
        492,
        974,
        462,
        588,
        335,
        532,
        552,
        590,
        408,
        393,
        807,
        162,
        74,
        898,
        533,
        795,
        216,
        695,
        705,
        978,
        313,
        710,
        311,
        605,
        249,
        851,
        224,
        528,
        966,
        26,
        515,
        490,
        963,
        525,
        29,
        848,
        488,
        180,
        642,
        948,
        331,
        984,
        261,
        290,
        801,
        195,
        680,
        841,
        215,
        553,
        92,
        265,
        870,
        623,
        202,
        749,
        821,
        136,
        267,
        441,
        432,
        539,
        163,
        596,
        435,
        256,
        391,
        58,
        83,
        983,
        859,
        157,
        655,
        27,
        969,
        895,
        377,
        612,
        568,
        385,
        47,
        992,
        544,
        329,
        320,
        584,
        469,
        487,
        674,
        477,
        900,
        535,
        595,
        912,
        140,
        920,
        14,
        683,
        873,
        919,
        436,
        759,
        626,
        135,
        293,
        310,
        776,
        149,
        882,
        641,
        137,
        657,
        718,
        209,
        31,
        307,
        571,
        928,
        480,
        837,
        585,
        669,
        645,
        277,
        922,
        352,
        196,
        318,
        160,
        549,
        62,
        546,
        909,
        681,
        601,
        129,
        97,
        778,
        459,
        737,
        805,
        341,
        493,
        103,
        107,
        269,
        351,
        647,
        752,
        43,
        111,
        931,
        731,
        183,
        458,
        619,
        843,
        651,
        637,
        71,
        486,
        878,
        495,
        717,
        494,
        270,
        834,
        358,
        905,
        798,
        285,
        159,
        960,
        788,
        587,
        230,
        152,
        90,
        853,
        603,
        51,
        861,
        633,
        761,
        403,
        967,
        457,
        531,
        49,
        565,
        964,
        570,
        980,
        564,
        640,
        979,
        826,
        280,
        692,
        211,
        580,
        506,
        769,
        88,
        598,
        868,
        933,
        839,
        35,
        384,
        252,
        242,
        383,
        889,
        198,
        365,
        567,
        460,
        624,
        762,
        517,
        872,
        295,
        52,
        172,
        225,
        750,
        259,
        939,
        682,
        679,
        685,
        609,
        409,
        738,
        182,
        200,
        231,
        342,
        940,
        745,
        709,
        422,
        630,
        154,
        148,
        804,
        337,
        45,
        725,
        971,
        82,
        874,
        607,
        361,
        511,
        191,
        754,
        720,
        884,
        660,
        32,
        168,
        643,
        513,
        677,
        18,
        614,
        262,
        575,
        733,
        927,
        561,
        61,
        975,
        671,
        646,
        167,
        177,
        347,
        444,
        577,
        164,
        233,
        9,
        303,
        704,
        499,
        793,
        817,
        970,
        892,
        7,
        190,
        333,
        465,
        34,
        394,
        416,
        770,
        343,
        100,
        99,
        454,
        131,
        451,
        774,
        257,
        786,
        439,
        78,
        891,
        543,
        504,
        604,
        2,
        260,
        629,
        547,
        981,
        388,
        187,
        936,
        785,
        84,
        631,
        783,
        79,
        945,
        108,
        360,
        483,
        75,
        569,
        134,
        566,
        130,
        993,
        845,
        846,
        208,
        498,
        144,
        314,
        820,
        973,
        958,
        13,
        823,
        721,
        161,
        842,
        727,
        730,
        608,
        278,
        634,
        239,
        816,
        803,
        743,
        897,
        696,
        921,
        467,
        723,
        808,
        666,
        226,
        232,
        790,
        904,
        251,
        876,
        636,
        691,
        545,
        594,
        192,
        722,
        995,
        777,
        819,
        447,
        68,
        830,
        166,
        832,
        473,
        649,
        44,
        471,
        542,
        188,
        693,
        370,
        644,
        150,
        8,
        724,
        69,
        479,
        38,
        402,
        268,
        977,
        787,
        452,
        386,
        19,
        346,
        472,
        263,
        109,
        857,
        864,
        768,
        757,
        520,
        957,
        881,
        353,
        715,
        64,
        622,
        264,
        178,
        686,
        206,
        275,
        60,
        22,
        952,
        728,
        407,
        89,
        794,
        835,
        98,
        833,
        470,
        512,
        440,
        286,
        950,
        338,
        23,
        476,
        156,
        711,
        942,
        988,
        250,
        33,
        880,
        813,
        916,
        424,
        325,
        186,
        734,
        867,
        73,
        464,
        951,
        914,
        782,
        369,
        258,
        875,
        934,
        726,
        176,
        829,
        602,
        855,
        610,
        676,
        25,
        707,
        204,
        883,
        697,
        946,
        687,
        359,
        165,
        466,
        429,
        141,
        670,
        442,
        482,
        865,
        405,
        288,
        287,
        579,
        379,
        625
    ],
    "Global Optimum": 0,
    "Algorithm": "Genetic algorithm",
    "Parameters": {
        "population": 30,
        "offspring": 30,
        "mutation probability": 0.001,
        "crossover probability": 0.9
    },
    "Fitness": 1389433,
    "Solution": [
        540,
        117,
        367,
        551,
        489,
        355,
        378,
        81,
        151,
        825,
        185,
        474,
        323,
        345,
        213,
        871,
        404,
        315,
        15,
        328,
        373,
        306,
        212,
        764,
        243,
        101,
        558,
        397,
        583,
        55,
        618,
        448,
        238,
        555,
        560,
        1,
        398,
        292,
        620,
        240,
        124,
        765,
        146,
        237,
        57,
        246,
        869,
        332,
        431,
        6,
        500,
        455,
        563,
        401,
        972,
        199,
        862,
        222,
        218,
        574,
        985,
        714,
        56,
        400,
        947,
        617,
        767,
        910,
        982,
        746,
        395,
        741,
        527,
        890,
        597,
        283,
        28,
        312,
        809,
        589,
        792,
        96,
        417,
        840,
        406,
        519,
        334,
        854,
        502,
        518,
        885,
        491,
        296,
        42,
        822,
        812,
        126,
        59,
        699,
        508,
        850,
        349,
        635,
        501,
        944,
        712,
        729,
        694,
        689,
        496,
        445,
        784,
        273,
        538,
        772,
        39,
        509,
        102,
        708,
        219,
        879,
        3,
        665,
        932,
        443,
        924,
        661,
        93,
        959,
        133,
        703,
        811,
        438,
        536,
        236,
        321,
        291,
        245,
        326,
        11,
        142,
        139,
        248,
        356,
        272,
        171,
        77,
        654,
        906,
        578,
        849,
        427,
        106,
        420,
        210,
        76,
        791,
        893,
        121,
        244,
        205,
        659,
        668,
        122,
        276,
        615,
        673,
        664,
        887,
        582,
        330,
        917,
        389,
        913,
        428,
        758,
        266,
        684,
        593,
        380,
        976,
        529,
        381,
        719,
        418,
        678,
        253,
        223,
        481,
        284,
        105,
        522,
        554,
        354,
        611,
        12,
        116,
        340,
        814,
        421,
        796,
        297,
        751,
        781,
        996,
        523,
        247,
        87,
        114,
        181,
        316,
        21,
        274,
        628,
        214,
        827,
        526,
        965,
        802,
        322,
        179,
        478,
        903,
        371,
        675,
        127,
        929,
        324,
        158,
        95,
        456,
        387,
        413,
        991,
        621,
        450,
        194,
        736,
        143,
        17,
        41,
        503,
        475,
        305,
        613,
        138,
        923,
        366,
        419,
        943,
        372,
        690,
        362,
        319,
        299,
        732,
        468,
        616,
        221,
        925,
        410,
        541,
        433,
        716,
        639,
        907,
        799,
        763,
        824,
        155,
        437,
        4,
        656,
        894,
        998,
        54,
        170,
        987,
        123,
        228,
        203,
        899,
        507,
        289,
        399,
        217,
        911,
        701,
        425,
        877,
        254,
        901,
        446,
        953,
        753,
        184,
        279,
        94,
        989,
        747,
        559,
        806,
        197,
        241,
        556,
        309,
        48,
        484,
        392,
        572,
        548,
        581,
        990,
        534,
        374,
        810,
        304,
        5,
        201,
        962,
        104,
        80,
        132,
        497,
        461,
        667,
        175,
        453,
        648,
        557,
        744,
        956,
        755,
        128,
        434,
        414,
        941,
        627,
        24,
        662,
        390,
        350,
        576,
        411,
        748,
        336,
        300,
        650,
        632,
        815,
        955,
        524,
        220,
        706,
        652,
        514,
        847,
        844,
        125,
        40,
        301,
        866,
        740,
        363,
        37,
        896,
        53,
        120,
        281,
        700,
        994,
        999,
        412,
        227,
        937,
        86,
        234,
        36,
        968,
        207,
        348,
        638,
        302,
        20,
        756,
        797,
        193,
        505,
        189,
        935,
        591,
        396,
        66,
        818,
        653,
        908,
        550,
        344,
        30,
        938,
        702,
        915,
        773,
        800,
        113,
        118,
        742,
        779,
        510,
        886,
        339,
        828,
        658,
        382,
        663,
        836,
        112,
        856,
        930,
        449,
        573,
        63,
        16,
        72,
        831,
        961,
        430,
        863,
        50,
        115,
        147,
        426,
        255,
        169,
        271,
        65,
        173,
        780,
        174,
        10,
        599,
        229,
        110,
        858,
        516,
        463,
        317,
        67,
        485,
        838,
        70,
        282,
        997,
        46,
        415,
        735,
        852,
        713,
        364,
        0,
        600,
        688,
        586,
        986,
        562,
        368,
        592,
        376,
        423,
        145,
        775,
        375,
        926,
        357,
        119,
        766,
        672,
        606,
        298,
        949,
        91,
        153,
        308,
        698,
        739,
        530,
        760,
        327,
        521,
        918,
        888,
        537,
        85,
        789,
        771,
        902,
        860,
        235,
        294,
        954,
        492,
        974,
        462,
        588,
        335,
        532,
        552,
        590,
        408,
        393,
        807,
        162,
        74,
        898,
        533,
        795,
        216,
        695,
        705,
        978,
        313,
        710,
        311,
        605,
        249,
        851,
        224,
        528,
        966,
        26,
        515,
        490,
        963,
        525,
        29,
        848,
        488,
        180,
        642,
        948,
        331,
        984,
        261,
        290,
        801,
        195,
        680,
        841,
        215,
        553,
        92,
        265,
        870,
        623,
        202,
        749,
        821,
        136,
        267,
        441,
        432,
        539,
        163,
        596,
        435,
        256,
        391,
        58,
        83,
        983,
        859,
        157,
        655,
        27,
        969,
        895,
        377,
        612,
        568,
        385,
        47,
        992,
        544,
        329,
        320,
        584,
        469,
        487,
        674,
        477,
        900,
        535,
        595,
        912,
        140,
        920,
        14,
        683,
        873,
        919,
        436,
        759,
        626,
        135,
        293,
        310,
        776,
        149,
        882,
        641,
        137,
        657,
        718,
        209,
        31,
        307,
        571,
        928,
        480,
        837,
        585,
        669,
        645,
        277,
        922,
        352,
        196,
        318,
        160,
        549,
        62,
        546,
        909,
        681,
        601,
        129,
        97,
        778,
        459,
        737,
        805,
        341,
        493,
        103,
        107,
        269,
        351,
        647,
        752,
        43,
        111,
        931,
        731,
        183,
        458,
        619,
        843,
        651,
        637,
        71,
        486,
        878,
        495,
        717,
        494,
        270,
        834,
        358,
        905,
        798,
        285,
        159,
        960,
        788,
        587,
        230,
        152,
        90,
        853,
        603,
        51,
        861,
        633,
        761,
        403,
        967,
        457,
        531,
        49,
        565,
        964,
        570,
        980,
        564,
        640,
        979,
        826,
        280,
        692,
        211,
        580,
        506,
        769,
        88,
        598,
        868,
        933,
        839,
        35,
        384,
        252,
        242,
        383,
        889,
        198,
        365,
        567,
        460,
        624,
        762,
        517,
        872,
        295,
        52,
        172,
        225,
        750,
        259,
        939,
        682,
        679,
        685,
        609,
        409,
        738,
        182,
        200,
        231,
        342,
        940,
        745,
        709,
        422,
        630,
        154,
        148,
        804,
        337,
        45,
        725,
        971,
        82,
        874,
        607,
        361,
        511,
        191,
        754,
        720,
        884,
        660,
        32,
        168,
        643,
        513,
        677,
        18,
        614,
        262,
        575,
        733,
        927,
        561,
        61,
        975,
        671,
        646,
        167,
        177,
        347,
        444,
        577,
        164,
        233,
        9,
        303,
        704,
        499,
        793,
        817,
        970,
        892,
        7,
        190,
        333,
        465,
        34,
        394,
        416,
        770,
        343,
        100,
        99,
        454,
        131,
        451,
        774,
        257,
        786,
        439,
        78,
        891,
        543,
        504,
        604,
        2,
        260,
        629,
        547,
        981,
        388,
        187,
        936,
        785,
        84,
        631,
        783,
        79,
        945,
        108,
        360,
        483,
        75,
        569,
        134,
        566,
        130,
        993,
        845,
        846,
        208,
        498,
        144,
        314,
        820,
        973,
        958,
        13,
        823,
        721,
        161,
        842,
        727,
        730,
        608,
        278,
        634,
        239,
        816,
        803,
        743,
        897,
        696,
        921,
        467,
        723,
        808,
        666,
        226,
        232,
        790,
        904,
        251,
        876,
        636,
        691,
        545,
        594,
        192,
        722,
        995,
        777,
        819,
        447,
        68,
        830,
        166,
        832,
        473,
        649,
        44,
        471,
        542,
        188,
        693,
        370,
        644,
        150,
        8,
        724,
        69,
        479,
        38,
        402,
        268,
        977,
        787,
        452,
        386,
        19,
        346,
        472,
        263,
        109,
        857,
        864,
        768,
        757,
        520,
        957,
        881,
        353,
        715,
        64,
        622,
        264,
        178,
        686,
        206,
        275,
        60,
        22,
        952,
        728,
        407,
        89,
        794,
        835,
        98,
        833,
        470,
        512,
        440,
        286,
        950,
        338,
        23,
        476,
        156,
        711,
        942,
        988,
        250,
        33,
        880,
        813,
        916,
        424,
        325,
        186,
        734,
        867,
        73,
        464,
        951,
        914,
        782,
        369,
        258,
        875,
        934,
        726,
        176,
        829,
        602,
        855,
        610,
        676,
        25,
        707,
        204,
        883,
        697,
        946,
        687,
        359,
        165,
        466,
        429,
        141,
        670,
        442,
        482,
        865,
        405,
        288,
        287,
        579,
        379,
        625
    ],
    "Nb of functions evaluations": 50010,
    "Computational time in seconds": 1465.9176874160767,
    "Stopping criterion in evaluations": 50000
}